n_res = 4;
rc = [ 22, 18, 23, 36 ];
n_tasks = 120;
d = [ 5, 9, 8, 7, 1, 8, 8, 3, 1, 4, 1, 3, 2, 3, 8, 6, 4, 8, 4, 3, 5, 9, 1, 5, 2, 6, 8, 6, 7, 3, 1, 10, 4, 8, 10, 6, 7, 2, 1, 9, 3, 3, 9, 5, 9, 7, 3, 10, 3, 5, 2, 2, 5, 2, 6, 3, 5, 2, 5, 7, 1, 1, 3, 6, 2, 1, 3, 8, 5, 7, 5, 9, 8, 6, 3, 5, 7, 6, 7, 2, 5, 4, 6, 9, 5, 8, 5, 3, 5, 5, 6, 1, 1, 6, 9, 3, 7, 4, 1, 9, 2, 8, 2, 7, 2, 9, 3, 7, 3, 4, 5, 10, 2, 9, 6, 4, 6, 8, 3, 4 ];
rr = [| 0, 9, 0, 0, 0, 0, 0, 0, 0, 0, 0, 0, 0, 8, 0, 0, 0, 2, 0, 0, 0, 0, 0, 0, 0, 0, 0, 2, 0, 0, 0, 0, 0, 5, 8, 0, 0, 0, 0, 0, 6, 0, 0, 0, 6, 0, 0, 6, 0, 0, 0, 0, 0, 5, 0, 0, 0, 8, 0, 6, 4, 0, 0, 0, 0, 0, 5, 3, 0, 3, 0, 0, 0, 0, 2, 7, 0, 0, 0, 0, 0, 0, 0, 0, 0, 0, 0, 9, 0, 0, 0, 0, 0, 0, 0, 0, 1, 0, 1, 0, 0, 8, 0, 7, 0, 4, 0, 0, 0, 0, 0, 0, 0, 0, 0, 0, 0, 9, 0, 0
      | 0, 0, 0, 0, 0, 0, 0, 0, 0, 7, 0, 0, 0, 0, 5, 0, 0, 0, 0, 5, 0, 0, 0, 10, 0, 9, 0, 0, 0, 0, 1, 4, 0, 0, 0, 0, 0, 0, 0, 0, 0, 3, 0, 0, 0, 5, 0, 0, 5, 0, 0, 0, 0, 0, 0, 0, 0, 0, 0, 0, 0, 7, 0, 0, 6, 6, 0, 0, 0, 0, 1, 0, 0, 0, 0, 0, 5, 0, 0, 9, 0, 0, 7, 0, 0, 0, 0, 0, 0, 0, 7, 0, 5, 0, 4, 3, 0, 0, 0, 1, 0, 0, 0, 0, 0, 0, 0, 0, 0, 2, 0, 0, 0, 0, 0, 0, 8, 0, 0, 0
      | 0, 0, 0, 0, 8, 0, 0, 0, 10, 0, 0, 0, 7, 0, 0, 0, 9, 0, 0, 0, 0, 0, 0, 0, 0, 0, 1, 0, 0, 0, 0, 0, 8, 0, 0, 0, 10, 6, 0, 3, 0, 0, 1, 7, 0, 0, 0, 0, 0, 1, 0, 4, 7, 0, 0, 5, 0, 0, 8, 0, 0, 0, 7, 10, 0, 0, 0, 0, 0, 0, 0, 3, 9, 0, 0, 0, 0, 9, 0, 0, 0, 0, 0, 0, 0, 6, 1, 0, 10, 0, 0, 0, 0, 2, 0, 0, 0, 4, 0, 0, 0, 0, 3, 0, 8, 0, 0, 0, 0, 0, 5, 0, 8, 5, 9, 7, 0, 0, 0, 10
      | 4, 0, 4, 3, 0, 7, 1, 9, 0, 0, 2, 10, 0, 0, 0, 8, 0, 0, 5, 0, 10, 4, 10, 0, 1, 0, 0, 0, 6, 4, 0, 0, 0, 0, 0, 9, 0, 0, 6, 0, 0, 0, 0, 0, 0, 0, 5, 0, 0, 0, 9, 0, 0, 0, 5, 0, 8, 0, 0, 0, 0, 0, 0, 0, 0, 0, 0, 0, 6, 0, 0, 0, 0, 2, 0, 0, 0, 0, 3, 0, 5, 4, 0, 6, 6, 0, 0, 0, 0, 10, 0, 1, 0, 0, 0, 0, 0, 0, 0, 0, 9, 0, 0, 0, 0, 0, 7, 8, 8, 0, 0, 7, 0, 0, 0, 0, 0, 0, 6, 0 |];
suc = [ { 4, 7, 10 },
       { 26, 55, 60 },
       { 5, 6, 17 },
       { 33, 36, 58 },
       { 13, 19, 68 },
       { 61 },
       { 8, 9, 12 },
       { 118 },
       { 28, 30, 38 },
       { 11, 15, 20 },
       { 14, 43, 74 },
       { 46 },
       { 16, 23, 31 },
       { 22, 29, 50 },
       { 27, 37 },
       { 18, 35, 57 },
       { 64 },
       { 58, 87 },
       { 25, 49 },
       { 21 },
       { 24, 85, 95 },
       { 90, 114 },
       { 42, 49 },
       { 39, 63 },
       { 28 },
       { 41, 97 },
       { 71 },
       { 32, 56 },
       { 34, 107, 117 },
       { 44, 52, 79 },
       { 89, 91 },
       { 48, 51, 69 },
       { 40 },
       { 51, 87, 98 },
       { 53 },
       { 37 },
       { 75 },
       { 72 },
       { 45, 47, 59 },
       { 70 },
       { 62, 81, 99 },
       { 76 },
       { 51 },
       { 78 },
       { 66 },
       { 54, 109 },
       { 88 },
       { 71 },
       { 67 },
       { 111 },
       { 97 },
       { 104 },
       { 114 },
       { 65, 99 },
       { 80 },
       { 77, 115 },
       { 116 },
       { 78, 84 },
       { 120 },
       { 102 },
       { 85 },
       { 86, 95 },
       { 87 },
       { 86 },
       { 113 },
       { 73 },
       { 113 },
       { 86, 106 },
       { 100 },
       { 109 },
       { 93, 110 },
       { 82 },
       { 75, 89, 94 },
       { 75, 79 },
       { 83 },
       { 106 },
       { 89 },
       { 115 },
       { 90 },
       { 111 },
       { 94 },
       { 99 },
       { 97, 109 },
       { 88, 90 },
       { 104 },
       { 120 },
       { 114 },
       { 96 },
       { 107 },
       { 92 },
       { 102 },
       { 101 },
       { 105 },
       { 108 },
       { 103 },
       { 98, 105 },
       { 108 },
       { 103 },
       { 112 },
       { 104 },
       { 115 },
       { 105 },
       { 113 },
       { 117 },
       { 108 },
       { 110 },
       { 118 },
       { 112 },
       { 110 },
       { 111 },
       { 116 },
       { 119 },
       { 116 },
       { 118 },
       { 119 },
       { 119 },
       { 120 },
       {  },
       {  },
       {  } ];
